logs/miss/feas/miss-05-30-2.lp
\ LP format - for model browsing. Use MPS format to capture full model detail.
Minimize
  p0 + p1 + p2 + p3 + p4
Subject To
 R0: x0,1_11 + x0,2_11 + x0,3_11 + x0,4_11 + x1,2_11 + x1,3_11 + x1,4_11
   + x2,3_11 + x2,4_11 + x3,4_11 = 1
 R1: x0,1_16 + x0,2_16 + x0,3_16 + x0,4_16 + x1,2_16 + x1,3_16 + x1,4_16
   + x2,3_16 + x2,4_16 + x3,4_16 = 1
 R2: x0,1_23 + x0,2_23 + x0,3_23 + x0,4_23 + x1,2_23 + x1,3_23 + x1,4_23
   + x2,3_23 + x2,4_23 + x3,4_23 = 1
 R3: x0,1_36 + x0,2_36 + x0,3_36 + x0,4_36 + x1,2_36 + x1,3_36 + x1,4_36
   + x2,3_36 + x2,4_36 + x3,4_36 = 1
 R4: x0,1_59 + x0,2_59 + x0,3_59 + x0,4_59 + x1,2_59 + x1,3_59 + x1,4_59
   + x2,3_59 + x2,4_59 + x3,4_59 = 1
 R5: x0,1_11 + x0,1_16 + x0,1_23 + x0,1_36 + x0,1_59 <= 1
 R6: x0,2_11 + x0,2_16 + x0,2_23 + x0,2_36 + x0,2_59 <= 1
 R7: x0,3_11 + x0,3_16 + x0,3_23 + x0,3_36 + x0,3_59 <= 1
 R8: x0,4_11 + x0,4_16 + x0,4_23 + x0,4_36 + x0,4_59 <= 1
 R9: x1,2_11 + x1,2_16 + x1,2_23 + x1,2_36 + x1,2_59 <= 1
 R10: x1,3_11 + x1,3_16 + x1,3_23 + x1,3_36 + x1,3_59 <= 1
 R11: x1,4_11 + x1,4_16 + x1,4_23 + x1,4_36 + x1,4_59 <= 1
 R12: x2,3_11 + x2,3_16 + x2,3_23 + x2,3_36 + x2,3_59 <= 1
 R13: x2,4_11 + x2,4_16 + x2,4_23 + x2,4_36 + x2,4_59 <= 1
 R14: x3,4_11 + x3,4_16 + x3,4_23 + x3,4_36 + x3,4_59 <= 1
 R15: p0 - p1 <= -1
 R16: - 11 x0,1_11 - p0 + p1 >= 0
 R17: 145 x0,1_11 - p0 + p1 <= 156
 R18: - 16 x0,1_16 - p0 + p1 >= 0
 R19: 145 x0,1_16 - p0 + p1 <= 161
 R20: - 23 x0,1_23 - p0 + p1 >= 0
 R21: 145 x0,1_23 - p0 + p1 <= 168
 R22: - 36 x0,1_36 - p0 + p1 >= 0
 R23: 145 x0,1_36 - p0 + p1 <= 181
 R24: - 59 x0,1_59 - p0 + p1 >= 0
 R25: 145 x0,1_59 - p0 + p1 <= 204
 R26: p0 - p2 <= -1
 R27: - 11 x0,2_11 - p0 + p2 >= 0
 R28: 145 x0,2_11 - p0 + p2 <= 156
 R29: - 16 x0,2_16 - p0 + p2 >= 0
 R30: 145 x0,2_16 - p0 + p2 <= 161
 R31: - 23 x0,2_23 - p0 + p2 >= 0
 R32: 145 x0,2_23 - p0 + p2 <= 168
 R33: - 36 x0,2_36 - p0 + p2 >= 0
 R34: 145 x0,2_36 - p0 + p2 <= 181
 R35: - 59 x0,2_59 - p0 + p2 >= 0
 R36: 145 x0,2_59 - p0 + p2 <= 204
 R37: p0 - p3 <= -1
 R38: - 11 x0,3_11 - p0 + p3 >= 0
 R39: 145 x0,3_11 - p0 + p3 <= 156
 R40: - 16 x0,3_16 - p0 + p3 >= 0
 R41: 145 x0,3_16 - p0 + p3 <= 161
 R42: - 23 x0,3_23 - p0 + p3 >= 0
 R43: 145 x0,3_23 - p0 + p3 <= 168
 R44: - 36 x0,3_36 - p0 + p3 >= 0
 R45: 145 x0,3_36 - p0 + p3 <= 181
 R46: - 59 x0,3_59 - p0 + p3 >= 0
 R47: 145 x0,3_59 - p0 + p3 <= 204
 R48: p0 - p4 <= -1
 R49: - 11 x0,4_11 - p0 + p4 >= 0
 R50: 145 x0,4_11 - p0 + p4 <= 156
 R51: - 16 x0,4_16 - p0 + p4 >= 0
 R52: 145 x0,4_16 - p0 + p4 <= 161
 R53: - 23 x0,4_23 - p0 + p4 >= 0
 R54: 145 x0,4_23 - p0 + p4 <= 168
 R55: - 36 x0,4_36 - p0 + p4 >= 0
 R56: 145 x0,4_36 - p0 + p4 <= 181
 R57: - 59 x0,4_59 - p0 + p4 >= 0
 R58: 145 x0,4_59 - p0 + p4 <= 204
 R59: p1 - p2 <= -1
 R60: - 11 x1,2_11 - p1 + p2 >= 0
 R61: 145 x1,2_11 - p1 + p2 <= 156
 R62: - 16 x1,2_16 - p1 + p2 >= 0
 R63: 145 x1,2_16 - p1 + p2 <= 161
 R64: - 23 x1,2_23 - p1 + p2 >= 0
 R65: 145 x1,2_23 - p1 + p2 <= 168
 R66: - 36 x1,2_36 - p1 + p2 >= 0
 R67: 145 x1,2_36 - p1 + p2 <= 181
 R68: - 59 x1,2_59 - p1 + p2 >= 0
 R69: 145 x1,2_59 - p1 + p2 <= 204
 R70: p1 - p3 <= -1
 R71: - 11 x1,3_11 - p1 + p3 >= 0
 R72: 145 x1,3_11 - p1 + p3 <= 156
 R73: - 16 x1,3_16 - p1 + p3 >= 0
 R74: 145 x1,3_16 - p1 + p3 <= 161
 R75: - 23 x1,3_23 - p1 + p3 >= 0
 R76: 145 x1,3_23 - p1 + p3 <= 168
 R77: - 36 x1,3_36 - p1 + p3 >= 0
 R78: 145 x1,3_36 - p1 + p3 <= 181
 R79: - 59 x1,3_59 - p1 + p3 >= 0
 R80: 145 x1,3_59 - p1 + p3 <= 204
 R81: p1 - p4 <= -1
 R82: - 11 x1,4_11 - p1 + p4 >= 0
 R83: 145 x1,4_11 - p1 + p4 <= 156
 R84: - 16 x1,4_16 - p1 + p4 >= 0
 R85: 145 x1,4_16 - p1 + p4 <= 161
 R86: - 23 x1,4_23 - p1 + p4 >= 0
 R87: 145 x1,4_23 - p1 + p4 <= 168
 R88: - 36 x1,4_36 - p1 + p4 >= 0
 R89: 145 x1,4_36 - p1 + p4 <= 181
 R90: - 59 x1,4_59 - p1 + p4 >= 0
 R91: 145 x1,4_59 - p1 + p4 <= 204
 R92: p2 - p3 <= -1
 R93: - 11 x2,3_11 - p2 + p3 >= 0
 R94: 145 x2,3_11 - p2 + p3 <= 156
 R95: - 16 x2,3_16 - p2 + p3 >= 0
 R96: 145 x2,3_16 - p2 + p3 <= 161
 R97: - 23 x2,3_23 - p2 + p3 >= 0
 R98: 145 x2,3_23 - p2 + p3 <= 168
 R99: - 36 x2,3_36 - p2 + p3 >= 0
 R100: 145 x2,3_36 - p2 + p3 <= 181
 R101: - 59 x2,3_59 - p2 + p3 >= 0
 R102: 145 x2,3_59 - p2 + p3 <= 204
 R103: p2 - p4 <= -1
 R104: - 11 x2,4_11 - p2 + p4 >= 0
 R105: 145 x2,4_11 - p2 + p4 <= 156
 R106: - 16 x2,4_16 - p2 + p4 >= 0
 R107: 145 x2,4_16 - p2 + p4 <= 161
 R108: - 23 x2,4_23 - p2 + p4 >= 0
 R109: 145 x2,4_23 - p2 + p4 <= 168
 R110: - 36 x2,4_36 - p2 + p4 >= 0
 R111: 145 x2,4_36 - p2 + p4 <= 181
 R112: - 59 x2,4_59 - p2 + p4 >= 0
 R113: 145 x2,4_59 - p2 + p4 <= 204
 R114: p3 - p4 <= -1
 R115: - 11 x3,4_11 - p3 + p4 >= 0
 R116: 145 x3,4_11 - p3 + p4 <= 156
 R117: - 16 x3,4_16 - p3 + p4 >= 0
 R118: 145 x3,4_16 - p3 + p4 <= 161
 R119: - 23 x3,4_23 - p3 + p4 >= 0
 R120: 145 x3,4_23 - p3 + p4 <= 168
 R121: - 36 x3,4_36 - p3 + p4 >= 0
 R122: 145 x3,4_36 - p3 + p4 <= 181
 R123: - 59 x3,4_59 - p3 + p4 >= 0
 R124: 145 x3,4_59 - p3 + p4 <= 204
Bounds
Binaries
 x0,1_11 x0,1_16 x0,1_23 x0,1_36 x0,1_59 x0,2_11 x0,2_16 x0,2_23 x0,2_36
 x0,2_59 x0,3_11 x0,3_16 x0,3_23 x0,3_36 x0,3_59 x0,4_11 x0,4_16 x0,4_23
 x0,4_36 x0,4_59 x1,2_11 x1,2_16 x1,2_23 x1,2_36 x1,2_59 x1,3_11 x1,3_16
 x1,3_23 x1,3_36 x1,3_59 x1,4_11 x1,4_16 x1,4_23 x1,4_36 x1,4_59 x2,3_11
 x2,3_16 x2,3_23 x2,3_36 x2,3_59 x2,4_11 x2,4_16 x2,4_23 x2,4_36 x2,4_59
 x3,4_11 x3,4_16 x3,4_23 x3,4_36 x3,4_59
Generals
 p0 p1 p2 p3 p4
End
