logs/miss/feas/miss-05-30-2.sol
# Objective value = 100
x0,1_11 0
x0,1_16 0
x0,1_23 0
x0,1_36 0
x0,1_59 0
x0,2_11 1
x0,2_16 0
x0,2_23 0
x0,2_36 0
x0,2_59 0
x0,3_11 0
x0,3_16 0
x0,3_23 1
x0,3_36 0
x0,3_59 0
x0,4_11 0
x0,4_16 0
x0,4_23 0
x0,4_36 0
x0,4_59 1
x1,2_11 0
x1,2_16 0
x1,2_23 0
x1,2_36 0
x1,2_59 0
x1,3_11 0
x1,3_16 1
x1,3_23 0
x1,3_36 0
x1,3_59 0
x1,4_11 0
x1,4_16 0
x1,4_23 0
x1,4_36 0
x1,4_59 0
x2,3_11 0
x2,3_16 0
x2,3_23 0
x2,3_36 0
x2,3_59 0
x2,4_11 0
x2,4_16 0
x2,4_23 0
x2,4_36 0
x2,4_59 0
x3,4_11 0
x3,4_16 0
x3,4_23 0
x3,4_36 1
x3,4_59 0
p0 0
p1 7
p2 11
p3 23
p4 59
