logs/miss/feas/miss-05-30-2.log

Gurobi 8.1.1 (win64) logging started 11/24/19 10:01:17

Changed value of parameter LogFile to logs/miss/feas/miss-05-30-2.log
   Prev: gurobi.log  Default: 
Changed value of parameter LogToConsole to 0
   Prev: 1  Min: 0  Max: 1  Default: 1
Changed value of parameter TimeLimit to 3600.0
   Prev: 1e+100  Min: 0.0  Max: 1e+100  Default: 1e+100
Optimize a model with 185 rows, 81 columns and 630 nonzeros
Variable types: 0 continuous, 81 integer (75 binary)
Coefficient statistics:
  Matrix range     [1e+00, 1e+02]
  Objective range  [1e+00, 1e+00]
  Bounds range     [1e+00, 1e+00]
  RHS range        [1e+00, 2e+02]
Presolve time: 0.00s
Presolved: 185 rows, 81 columns, 630 nonzeros
Variable types: 0 continuous, 81 integer (75 binary)

Root relaxation: objective 1.980000e+01, 76 iterations, 0.00 seconds

    Nodes    |    Current Node    |     Objective Bounds      |     Work
 Expl Unexpl |  Obj  Depth IntInf | Incumbent    BestBd   Gap | It/Node Time

     0     0   19.80000    0   40          -   19.80000      -     -    0s
H    0     0                     106.0000000   19.80000  81.3%     -    0s
     0     0   29.42269    0   24  106.00000   29.42269  72.2%     -    0s
H    0     0                     104.0000000   29.42269  71.7%     -    0s
     0     0   29.58042    0   22  104.00000   29.58042  71.6%     -    0s
     0     0   36.02645    0   18  104.00000   36.02645  65.4%     -    0s
     0     0   36.90834    0   18  104.00000   36.90834  64.5%     -    0s
     0     0   36.96757    0   19  104.00000   36.96757  64.5%     -    0s
     0     0   37.11934    0   35  104.00000   37.11934  64.3%     -    0s
H    0     0                     102.0000000   37.11934  63.6%     -    0s
     0     0   37.11934    0   38  102.00000   37.11934  63.6%     -    0s
     0     0   37.77171    0   28  102.00000   37.77171  63.0%     -    0s
     0     0   37.86505    0   28  102.00000   37.86505  62.9%     -    0s
     0     0   37.86505    0   29  102.00000   37.86505  62.9%     -    0s
     0     0   38.03841    0   18  102.00000   38.03841  62.7%     -    0s
     0     0   38.04487    0   25  102.00000   38.04487  62.7%     -    0s
     0     0   40.28495    0   23  102.00000   40.28495  60.5%     -    0s
     0     0   40.41060    0   22  102.00000   40.41060  60.4%     -    0s
     0     0   40.42828    0   23  102.00000   40.42828  60.4%     -    0s
     0     0   40.42828    0   23  102.00000   40.42828  60.4%     -    0s
     0     0   40.42828    0   25  102.00000   40.42828  60.4%     -    0s
     0     0   40.65586    0   25  102.00000   40.65586  60.1%     -    0s
     0     0   40.67670    0   24  102.00000   40.67670  60.1%     -    0s
     0     0   40.67670    0   24  102.00000   40.67670  60.1%     -    0s
     0     0   40.67670    0   24  102.00000   40.67670  60.1%     -    0s
     0     0   40.67670    0   26  102.00000   40.67670  60.1%     -    0s
     0     0   40.67670    0   22  102.00000   40.67670  60.1%     -    0s
     0     0   40.67670    0   22  102.00000   40.67670  60.1%     -    0s
     0     0   40.67670    0   32  102.00000   40.67670  60.1%     -    0s
H    0     0                     101.0000000   40.67670  59.7%     -    0s
     0     0   70.98022    0   20  101.00000   70.98022  29.7%     -    0s
     0     0   71.09418    0   20  101.00000   71.09418  29.6%     -    0s
     0     0   74.75831    0   21  101.00000   74.75831  26.0%     -    0s
     0     0   75.14531    0   20  101.00000   75.14531  25.6%     -    0s
     0     0   75.48147    0   22  101.00000   75.48147  25.3%     -    0s
     0     0   75.48147    0   22  101.00000   75.48147  25.3%     -    0s
     0     0   75.94584    0   19  101.00000   75.94584  24.8%     -    0s
     0     0   76.37841    0   18  101.00000   76.37841  24.4%     -    0s
     0     0   76.40813    0   18  101.00000   76.40813  24.3%     -    0s
     0     0   80.96488    0   19  101.00000   80.96488  19.8%     -    0s
     0     0   80.97277    0   22  101.00000   80.97277  19.8%     -    0s
     0     0   81.40974    0   21  101.00000   81.40974  19.4%     -    0s
     0     0   81.44068    0   21  101.00000   81.44068  19.4%     -    0s
     0     0   85.00000    0   10  101.00000   85.00000  15.8%     -    0s
     0     0   88.00000    0    6  101.00000   88.00000  12.9%     -    0s
     0     0   88.00000    0    6  101.00000   88.00000  12.9%     -    0s
     0     0   88.00659    0   15  101.00000   88.00659  12.9%     -    0s
     0     0   89.03480    0   20  101.00000   89.03480  11.8%     -    0s
     0     0   89.30259    0   20  101.00000   89.30259  11.6%     -    0s
     0     0   90.68959    0   15  101.00000   90.68959  10.2%     -    0s
     0     0   90.71237    0   14  101.00000   90.71237  10.2%     -    0s
     0     0   91.19570    0   13  101.00000   91.19570  9.71%     -    0s
     0     0   91.23145    0   12  101.00000   91.23145  9.67%     -    0s
     0     0   91.65979    0   16  101.00000   91.65979  9.25%     -    0s
     0     0   92.00000    0    3  101.00000   92.00000  8.91%     -    0s
     0     0   92.00000    0    3  101.00000   92.00000  8.91%     -    0s

Explored 1 nodes (863 simplex iterations) in 0.15 seconds
Thread count was 4 (of 4 available processors)

Solution count 4: 101 102 104 106 

Optimal solution found (tolerance 1.00e-04)
Best objective 1.010000000000e+02, best bound 1.010000000000e+02, gap 0.0000%

Gurobi 8.1.1 (win64) logging started 11/24/19 10:01:17

Changed value of parameter LogFile to logs/miss/feas/miss-05-30-2.log
   Prev: gurobi.log  Default: 
Changed value of parameter LogToConsole to 0
   Prev: 1  Min: 0  Max: 1  Default: 1
Changed value of parameter TimeLimit to 3600.0
   Prev: 1e+100  Min: 0.0  Max: 1e+100  Default: 1e+100
Optimize a model with 125 rows, 55 columns and 420 nonzeros
Variable types: 0 continuous, 55 integer (50 binary)
Coefficient statistics:
  Matrix range     [1e+00, 1e+02]
  Objective range  [1e+00, 1e+00]
  Bounds range     [1e+00, 1e+00]
  RHS range        [1e+00, 2e+02]
Found heuristic solution: objective 111.0000000
Presolve removed 12 rows and 9 columns
Presolve time: 0.00s
Presolved: 113 rows, 46 columns, 360 nonzeros
Variable types: 0 continuous, 46 integer (41 binary)

Root relaxation: objective 2.225000e+01, 40 iterations, 0.00 seconds

    Nodes    |    Current Node    |     Objective Bounds      |     Work
 Expl Unexpl |  Obj  Depth IntInf | Incumbent    BestBd   Gap | It/Node Time

     0     0   22.25000    0   28  111.00000   22.25000  80.0%     -    0s
H    0     0                     110.0000000   22.25000  79.8%     -    0s
     0     0   66.71710    0   14  110.00000   66.71710  39.3%     -    0s
H    0     0                     106.0000000   66.71710  37.1%     -    0s
H    0     0                     101.0000000   66.71710  33.9%     -    0s
     0     0   71.34250    0   21  101.00000   71.34250  29.4%     -    0s
     0     0   72.20129    0   16  101.00000   72.20129  28.5%     -    0s
     0     0   72.59187    0   16  101.00000   72.59187  28.1%     -    0s
     0     0   72.82985    0   17  101.00000   72.82985  27.9%     -    0s
     0     0   76.96793    0   16  101.00000   76.96793  23.8%     -    0s
H    0     0                     100.0000000   76.96793  23.0%     -    0s
     0     0   78.53457    0   15  100.00000   78.53457  21.5%     -    0s
     0     0   80.88629    0   17  100.00000   80.88629  19.1%     -    0s
     0     0   81.10478    0   17  100.00000   81.10478  18.9%     -    0s
     0     0   81.44214    0   16  100.00000   81.44214  18.6%     -    0s
     0     0   81.45402    0   16  100.00000   81.45402  18.5%     -    0s
     0     0   82.66647    0   16  100.00000   82.66647  17.3%     -    0s
     0     0   82.68465    0   17  100.00000   82.68465  17.3%     -    0s
     0     0   83.15816    0   18  100.00000   83.15816  16.8%     -    0s
     0     0   83.17158    0   21  100.00000   83.17158  16.8%     -    0s
     0     0   83.25754    0   21  100.00000   83.25754  16.7%     -    0s
     0     0   83.25754    0   21  100.00000   83.25754  16.7%     -    0s
     0     0   86.31034    0    7  100.00000   86.31034  13.7%     -    0s
     0     0   89.61702    0    6  100.00000   89.61702  10.4%     -    0s
     0     0   94.41176    0    5  100.00000   94.41176  5.59%     -    0s
     0     0   96.71429    0    5  100.00000   96.71429  3.29%     -    0s
     0     0     cutoff    0       100.00000  100.00000  0.00%     -    0s

Cutting planes:
  Implied bound: 2
  MIR: 1

Explored 1 nodes (267 simplex iterations) in 0.06 seconds
Thread count was 4 (of 4 available processors)

Solution count 5: 100 101 106 ... 111

Optimal solution found (tolerance 1.00e-04)
Best objective 1.000000000000e+02, best bound 1.000000000000e+02, gap 0.0000%
